set_XLI: Successfully loaded '/home/huynhbac/Chronos/lpsolve55/libxli_CPLEX.so'

Value of objective function: 68588

Actual values of the variables:
dSta_0                          1
d0_1.0                          0
d0_1.1                          1
d1_2.0                        255
d1_2.1                          1
d1_3.0                          0
d1_3.1                          0
d2_3.0                        255
d2_3.1                          1
d3_4.0                        255
d3_4.1                          1
d3_5.0                          0
d3_5.1                          0
d4_5.0                        255
d4_5.1                          1
d5_6.0                          0
d5_6.1                          1
d5_1.0                        255
d5_1.1                          0
d6_7.0                          0
d6_7.1                          1
d6_8.0                          0
d6_8.1                          0
d7_8.0                          0
d7_8.1                          1
d8_9.0                          0
d8_9.1                          1
d9_10.0                         0
d9_10.1                         1
d9_11.0                       254
d9_11.1                         1
d10_11.0                        1
d10_11.1                        0
d10_10.0                     2047
d10_10.1                        0
d11_12.0                        0
d11_12.1                        1
d11_9.0                       255
d11_9.1                         0
d12_13.0                        0
d12_13.1                        1
d12_22.0                        0
d12_22.1                        0
d13_14.0                        0
d13_14.1                        1
d14_15.0                        7
d14_15.1                        1
d14_16.0                        0
d14_16.1                        0
d15_16.0                        7
d15_16.1                        1
d16_17.0                        7
d16_17.1                        1
d16_21.0                        0
d16_21.1                        0
d17_18.0                       63
d17_18.1                        1
d17_20.0                        0
d17_20.1                        0
d18_19.0                       63
d18_19.1                        1
d19_20.0                       63
d19_20.1                        1
d19_19.0                      192
d19_19.1                        0
d20_21.0                        7
d20_21.1                        1
d20_17.0                       56
d20_17.1                        0
d21_22.0                        0
d21_22.1                        1
d21_14.0                        7
d21_14.1                        0
cm                             68
b0                              1
d0_1                            1
b1                            256
d1_2                          256
d1_3                            0
d5_1                          255
b2                            256
d2_3                          256
b3                            256
d3_4                          256
d3_5                            0
b4                            256
d4_5                          256
b5                            256
d5_6                            1
b6                              1
d6_7                            1
d6_8                            0
b7                              1
d7_8                            1
b8                              1
d8_9                            1
b9                            256
d9_10                           1
d9_11                         255
d11_9                         255
b10                          2048
d10_11                          1
d10_10                       2047
b11                           256
d11_12                          1
b12                             1
d12_13                          1
d12_22                          0
b13                             1
d13_14                          1
b14                             8
d14_15                          8
d14_16                          0
d21_14                          7
b15                             8
d15_16                          8
b16                             8
d16_17                          8
d16_21                          0
b17                            64
d17_18                         64
d17_20                          0
d20_17                         56
b18                            64
d18_19                         64
b19                           256
d19_20                         64
d19_19                        192
b20                            64
d20_21                          8
b21                             8
d21_22                          1
b22                             1
b0.0                            0
b1.0                          255
b1.1                            1
b2.0                          255
b2.1                            1
b3.0                          255
b3.1                            1
b4.0                          255
b4.1                            1
b5.0                          255
b5.1                            1
b6.0                            0
b6.1                            1
b7.0                            0
b7.1                            1
b8.0                            0
b8.1                            1
b9.0                          255
b9.1                            1
b10.0                        2047
b10.1                           1
b11.0                         255
b11.1                           1
b12.0                           0
b12.1                           1
b13.0                           0
b13.1                           1
b14.0                           7
b14.1                           1
b15.0                           7
b15.1                           1
b16.0                           7
b16.1                           1
b17.0                          63
b17.1                           1
b18.0                          63
b18.1                           1
b19.0                         255
b19.1                           1
b20.0                          63
b20.1                           1
b21.0                           7
b21.1                           1
b22.0                           0
b22.1                           1
b0.1                            0
